(set-logic ALL)
(declare-fun seed0_T_1 () Bool)
(declare-fun seed0_T_10 () Bool)
(declare-fun seed0_T_11 () Bool)
(declare-fun seed0_T_2 () Bool)
(declare-fun seed0_T_3 () Bool)
(declare-fun seed0_T_4 () Bool)
(declare-fun seed0_T_5 () Bool)
(declare-fun seed0_T_6 () Bool)
(declare-fun seed0_T_7 () Bool)
(declare-fun seed0_T_8 () Bool)
(declare-fun seed0_T_9 () Bool)
(declare-fun seed0_T_a () Bool)
(declare-fun seed0_T_b () Bool)
(declare-fun seed0_T_c () Bool)
(declare-fun seed0_T_d () Bool)
(declare-fun seed0_T_e () Bool)
(declare-fun seed0_T_f () Bool)
(declare-fun seed0_var_0xINPUT_52599 () String)
(assert (and (or (= seed0_T_1 (not (= "" seed0_var_0xINPUT_52599))) (str.<= (str.++ seed0_var_0xINPUT_52599 "tjKoOrqmVzR") (str.++ seed0_var_0xINPUT_52599 "r45"))) (or seed0_T_1 (and (str.contains (str.++ seed0_var_0xINPUT_52599 "D3jpZoQlXzkAM") (str.++ seed0_var_0xINPUT_52599 "Gnq4")) (str.contains (str.++ seed0_var_0xINPUT_52599 "wxCKj4") (str.++ seed0_var_0xINPUT_52599 "QXCSdnK8")))) (or (= seed0_T_2 (not (= "" seed0_var_0xINPUT_52599))) (not (str.suffixof (str.++ seed0_var_0xINPUT_52599 "QO3sduW1") (str.++ seed0_var_0xINPUT_52599 "g9XdfklDE3")))) (or seed0_T_2 (not (str.< (str.++ seed0_var_0xINPUT_52599 "XIrVDlMJbOBKCR6041g") (str.++ seed0_var_0xINPUT_52599 "x9aiMB1eW")))) (or (= seed0_T_3 (not (= seed0_var_0xINPUT_52599 "VEECEXk2pV"))) (not (str.suffixof (str.++ seed0_var_0xINPUT_52599 "jAOxX2wYc58mI4J3kUFa") (str.++ seed0_var_0xINPUT_52599 "pyFH9Al2djwPQqf")))) (or (= seed0_T_4 (not seed0_T_3)) (or (str.prefixof (str.++ seed0_var_0xINPUT_52599 "Bpy8HPzJIibS") (str.++ seed0_var_0xINPUT_52599 "T")) (str.suffixof (str.++ seed0_var_0xINPUT_52599 "OL32CcX5") (str.++ seed0_var_0xINPUT_52599 "YJWQr")))) (or seed0_T_4 (=> (str.<= (str.++ seed0_var_0xINPUT_52599 "dEOmXMZn50TQx") (str.++ seed0_var_0xINPUT_52599 "jDWKpwRrV")) (str.prefixof (str.++ seed0_var_0xINPUT_52599 "7OsLUl") (str.++ seed0_var_0xINPUT_52599 "vm")))) (or (= seed0_T_5 (not (= "VEECEXk2pV" seed0_var_0xINPUT_52599))) (not (str.prefixof (str.++ seed0_var_0xINPUT_52599 "B") (str.++ seed0_var_0xINPUT_52599 "al2Q3BZ1Wh4YeAL8")))) (or (= seed0_T_6 (not seed0_T_5)) (not (str.prefixof (str.++ seed0_var_0xINPUT_52599 "KR") (str.++ seed0_var_0xINPUT_52599 "pyNFOjk1JeAXl")))) (or seed0_T_6 (xor (str.<= (str.++ seed0_var_0xINPUT_52599 "KmMoGqTXL7") (str.++ seed0_var_0xINPUT_52599 "8DP")) (str.prefixof (str.++ seed0_var_0xINPUT_52599 "r9Xma") (str.++ seed0_var_0xINPUT_52599 "7auohfrMxT5eP3")))) (or (= seed0_T_7 (= seed0_var_0xINPUT_52599 "")) (and (str.< (str.++ seed0_var_0xINPUT_52599 "A41sT") (str.++ seed0_var_0xINPUT_52599 "O1Uc9X5")) (str.contains (str.++ seed0_var_0xINPUT_52599 "BivdySeKV") (str.++ seed0_var_0xINPUT_52599 "rtXFUq0ZAHv9NE")))) (or (= seed0_T_8 (not seed0_T_7)) (not (str.< (str.++ seed0_var_0xINPUT_52599 "GI6b5ldEPkx") (str.++ seed0_var_0xINPUT_52599 "LS")))) (or seed0_T_8 (or (str.contains (str.++ seed0_var_0xINPUT_52599 "oMv") (str.++ seed0_var_0xINPUT_52599 "yDMqTUeS31t2L")) (str.suffixof (str.++ seed0_var_0xINPUT_52599 "ECKJURemYVP8j") (str.++ seed0_var_0xINPUT_52599 "R")))) (or (= seed0_T_9 (not (= "" seed0_var_0xINPUT_52599))) (str.suffixof (str.++ seed0_var_0xINPUT_52599 "gUe") (str.++ seed0_var_0xINPUT_52599 "bzNVTiReZJn"))) (or seed0_T_9 (xor (str.<= (str.++ seed0_var_0xINPUT_52599 "YD4Ji8swMaSZg") (str.++ seed0_var_0xINPUT_52599 "YukbN17x")) (str.contains (str.++ seed0_var_0xINPUT_52599 "z") (str.++ seed0_var_0xINPUT_52599 "3DgKnZFewW0iYCz")))) (or (= seed0_T_a (not (= seed0_var_0xINPUT_52599 "VEECEXk2pV"))) (not (str.prefixof (str.++ seed0_var_0xINPUT_52599 "xY6pVRNA1Pj7sde") (str.++ seed0_var_0xINPUT_52599 "ZAoqWFG3zyurEY2sU")))) (or (= seed0_T_b (not seed0_T_a)) (and (str.contains (str.++ seed0_var_0xINPUT_52599 "oMJ") (str.++ seed0_var_0xINPUT_52599 "bDoCA7KeGi")) (str.<= (str.++ seed0_var_0xINPUT_52599 "d") (str.++ seed0_var_0xINPUT_52599 "0eEqObQ6hvjWoZIxpda3")))) (or seed0_T_b (not (str.<= (str.++ seed0_var_0xINPUT_52599 "H0rptxF3GnL5jYvc") (str.++ seed0_var_0xINPUT_52599 "t0")))) (or (= seed0_T_c (not (= "VEECEXk2pV" seed0_var_0xINPUT_52599))) (and (str.suffixof (str.++ seed0_var_0xINPUT_52599 "EIKr2Dk4ZR6sVQjS1hgY") (str.++ seed0_var_0xINPUT_52599 "w7BrehD5kIvn9puQTto")) (str.prefixof (str.++ seed0_var_0xINPUT_52599 "UYuPSDBegTs5Nxv3") (str.++ seed0_var_0xINPUT_52599 "BdIfEpcMNlir")))) (or (= seed0_T_d (not seed0_T_c)) (str.contains (str.++ seed0_var_0xINPUT_52599 "4pVCclR0Tri5oxf92ad") (str.++ seed0_var_0xINPUT_52599 "TUfSG5Qg9zKLr"))) (or seed0_T_d (and (str.<= (str.++ seed0_var_0xINPUT_52599 "") (str.++ seed0_var_0xINPUT_52599 "8gd6xI0nZW")) (str.<= (str.++ seed0_var_0xINPUT_52599 "b31ENwTiLFqtf") (str.++ seed0_var_0xINPUT_52599 "jGU9KQsR7i3pz5vnHSf")))) (or (= seed0_T_e (= seed0_var_0xINPUT_52599 "")) (or (str.prefixof (str.++ seed0_var_0xINPUT_52599 "ypPXeLWM") (str.++ seed0_var_0xINPUT_52599 "XL3WPAdIuwniMlzT")) (str.<= (str.++ seed0_var_0xINPUT_52599 "KdXnvQI6ojUt") (str.++ seed0_var_0xINPUT_52599 "RM2X1lxokVS")))) (or (= seed0_T_f (not seed0_T_e)) (xor (str.suffixof (str.++ seed0_var_0xINPUT_52599 "AgapGh7zERl2Qkt") (str.++ seed0_var_0xINPUT_52599 "MEdixo8t4LPf9a7CFj2V")) (str.< (str.++ seed0_var_0xINPUT_52599 "FgRBoCcKd7EkP") (str.++ seed0_var_0xINPUT_52599 "3RZsltqMb")))) (or seed0_T_f (not (str.<= (str.++ seed0_var_0xINPUT_52599 "UG5Nmj") (str.++ seed0_var_0xINPUT_52599 "oif6uSVm7WvpBzARxbD2")))) (or (= seed0_T_10 (not (= seed0_var_0xINPUT_52599 "VEECEXk2pV"))) (str.<= (str.++ seed0_var_0xINPUT_52599 "2dpivnUEYX5R3h") (str.++ seed0_var_0xINPUT_52599 "bVKShM"))) (or (= seed0_T_11 (not seed0_T_10)) (not (str.contains (str.++ seed0_var_0xINPUT_52599 "2kUODzy5oRMgaSJAuZY") (str.++ seed0_var_0xINPUT_52599 "Ne3ZDOpd1iUQKw")))) (or seed0_T_11 (or (str.suffixof (str.++ seed0_var_0xINPUT_52599 "QFgP8") (str.++ seed0_var_0xINPUT_52599 "")) (str.suffixof (str.++ seed0_var_0xINPUT_52599 "0zyPQ9Ft") (str.++ seed0_var_0xINPUT_52599 ""))))))
(check-sat)
(exit)